!   File created by the GAMESS Input Deck Generator Plugin for Avogadro
 $BASIS GBASIS=STO NGAUSS=3 $END
 $CONTRL SCFTYP=UHF RUNTYP=OPTIMIZE ICHARG=1 MULT=1 $END
 $STATPT OPTTOL=0.0001 NSTEP=20 $END

 $DATA 
Title
C1
C     6.0    -1.75237    -0.00029    -0.05230
C     6.0    -0.80727    -1.15938    -0.25088
C     6.0     0.41617    -0.74698     0.57024
Br    35.0     1.94920    -0.00688    -0.44526
C     6.0     0.41938     0.72957     0.57772
C     6.0    -0.80134     1.15562    -0.24042
H     1.0    -2.12053    -0.00401     0.99977
H     1.0    -2.62132     0.00505    -0.74392
H     1.0    -0.52394    -1.22029    -1.32657
H     1.0    -1.23729    -2.13537     0.05772
H     1.0     0.48097    -1.09583     1.62540
H     1.0     0.48301     1.06630     1.63690
H     1.0    -0.51730     1.22442    -1.31547
H     1.0    -1.22634     2.13114     0.07646
 $END
