!File created by the GAMESS Input Deck Generator Plugin for Avogadro
 $BASIS GBASIS=PM3 $END
 $CONTRL SCFTYP=RHF RUNTYP=OPTIMIZE NZVAR=1 mult=1  ICHARG=0 $END
 $STATPT hssend=.t. OPTTOL=0.0005 NSTEP=50 $END
 $STATPT HESS=calc ihrep=5 $END
 $FORCE nvib=2 $END
 $ZMAT DLC=.t. auto=.t. nonvdw(1)=1,6,2,10 $END
 $ZMAT IFZMAT(1)=1,1,6,1,2,10 $END

 $DATA 
Title
C1
B     5.0    -0.35194373    -4.05672455     0.14632028
C     6.0     0.46828279     0.03239558     0.00205985
C     6.0     1.00134408     1.46349716    -0.03643029
C     6.0    -0.28432831     2.36305809    -0.02975493
C     6.0    -1.51015162     1.37461543    -0.03554652
C     6.0    -0.86817497    -0.00316884    -0.00575498
C     6.0     1.40264392    -1.15933883    -0.01380107
H     1.0    -0.65520197    -4.27193642     1.28632545
H     1.0    -1.04586327    -3.36713052    -0.53826028
H     1.0     0.63918602    -4.54153061    -0.30812323
H     1.0     1.61975563     1.63565671    -0.92384470
H     1.0     1.63068128     1.65206742     0.84474766
H     1.0    -0.30615485     3.00742149    -0.91049445
H     1.0    -0.30989552     2.99653530     0.85946023
H     1.0    -2.13717747     1.51897275    -0.92310381
H     1.0    -2.15202498     1.52375948     0.84192377
H     1.0    -1.46168840    -0.90948665    -0.00940692
H     1.0     1.26683509    -1.77062118    -0.91084349
H     1.0     1.23720741    -1.79517877     0.86775911
H     1.0     2.45059896    -0.83710313     0.01811822
 $END
