!File created by the GAMESS Input Deck Generator Plugin for Avogadro
 $BASIS GBASIS=STO NGAUSS=3 $END
 $CONTRL SCFTYP=RHF RUNTYP=SADPOINT $END
 $STATPT  HESS=calc ihrep=5 $END
 $FORCE NVIB=2 $END
 $STATPT OPTTOL=0.0005 NSTEP=50 hssend=.t. $END
 $ZMAT DLC=.T. AUTO=.T. NONVDW(1)=1,6,3,4,4,5,5,6,1,2,2,3 $END
!$ZMAT IFZMAT(1)=1,1,6,1,3,4 fvalue(1)=2.00,2.00 $END

 $DATA 
Title
C1
C     6.0     2.82284307    -1.81995618     0.64457595
C     6.0     2.22007203    -0.59155154     0.94013053
C     6.0     2.93417621     0.59554571     0.73991412
C     6.0     4.53899336     0.48325309     1.92817008
C     6.0     4.43667650    -0.75979763     2.56447124
C     6.0     4.49131727    -1.89658916     1.74472177
C     6.0     5.51906586    -1.84482324     0.64377880
C     6.0     6.04567289    -0.70737684     0.23728539
C     6.0     5.62307644     0.60874611     0.84853858
O     8.0     6.09738827     1.68535078     0.51136136
H     1.0     2.28983331    -2.72313285     0.92309272
H     1.0     3.33408189    -1.91300023    -0.30580565
H     1.0     1.46242750    -0.58634263     1.71521056
H     1.0     3.47976446     0.69932479    -0.19051139
H     1.0     2.47708106     1.52534330     1.06118119
H     1.0     4.43823481     1.37618053     2.53836966
H     1.0     3.92767715    -0.82332253     3.51848817
H     1.0     4.38719177    -2.86887956     2.21648145
H     1.0     5.81065559    -2.78984427     0.19858150
H     1.0     6.80658722    -0.66623515    -0.53096575
 $END
