!File created by the GAMESS Input Deck Generator Plugin for Avogadro
 $BASIS GBASIS=STO NGAUSS=3 $END
 $CONTRL SCFTYP=RHF RUNTYP=SADPOINT $END
 $STATPT  HESS=calc ihrep=5 $END
 $FORCE NVIB=2 $END
 $STATPT OPTTOL=0.0005 NSTEP=50 hssend=.t. $END
 $ZMAT DLC=.T. AUTO=.T. NONVDW(1)=1,6,3,4,4,5,5,6,1,2,2,3 $END
!$ZMAT IFZMAT(1)=1,1,6,1,3,4 fvalue(1)=2.00,2.00 $END

 $DATA 
Title
C1
C     6.0     2.84652686    -1.82502997     0.66902953
C     6.0     2.22706366    -0.59190243     0.93842930
C     6.0     2.96221757     0.59104538     0.75500447
C     6.0     4.50821018     0.48476231     1.90912068
C     6.0     4.43363762    -0.75920790     2.55878186
C     6.0     4.46299267    -1.89321661     1.72498524
C     6.0     5.50658512    -1.83956349     0.63136226
C     6.0     6.04085922    -0.70348954     0.23448017
C     6.0     5.61647749     0.61190104     0.84786385
O     8.0     6.10494089     1.68721175     0.53060788
H     1.0     2.30188084    -2.72140193     0.94839722
H     1.0     3.33670139    -1.92987227    -0.29182470
H     1.0     1.46468663    -0.58192265     1.70890796
H     1.0     3.49621439     0.69232553    -0.18292575
H     1.0     2.49583411     1.52196193     1.06024396
H     1.0     4.41724682     1.37522995     2.52511191
H     1.0     3.93374729    -0.82433951     3.51743984
H     1.0     4.37889385    -2.86557007     2.20173788
H     1.0     5.79848003    -2.78453279     0.18612599
H     1.0     6.80961990    -0.66149646    -0.52580959
 $END
