!File created by the GAMESS Input Deck Generator Plugin for Avogadro
 $BASIS GBASIS=STO NGAUSS=3 $END
 $CONTRL SCFTYP=RHF RUNTYP=IRC $END
 $STATPT  HESS=READ ihrep=5 $END
 $irc npoint=100 saddle=.t. tsengy=.t. forwrd=.t. opttol=0.0005 stride=0.1 $end

 $DATA 
Title
C1
C     6.0     2.84652686    -1.82502997     0.66902953
C     6.0     2.22706366    -0.59190243     0.93842930
C     6.0     2.96221757     0.59104538     0.75500447
C     6.0     4.50821018     0.48476231     1.90912068
C     6.0     4.43363762    -0.75920790     2.55878186
C     6.0     4.46299267    -1.89321661     1.72498524
C     6.0     5.50658512    -1.83956349     0.63136226
C     6.0     6.04085922    -0.70348954     0.23448017
C     6.0     5.61647749     0.61190104     0.84786385
O     8.0     6.10494089     1.68721175     0.53060788
H     1.0     2.30188084    -2.72140193     0.94839722
H     1.0     3.33670139    -1.92987227    -0.29182470
H     1.0     1.46468663    -0.58192265     1.70890796
H     1.0     3.49621439     0.69232553    -0.18292575
H     1.0     2.49583411     1.52196193     1.06024396
H     1.0     4.41724682     1.37522995     2.52511191
H     1.0     3.93374729    -0.82433951     3.51743984
H     1.0     4.37889385    -2.86557007     2.20173788
H     1.0     5.79848003    -2.78453279     0.18612599
H     1.0     6.80961990    -0.66149646    -0.52580959
 $END

 $HESS
ENERGY IS     -416.0940646447 E(NUC) IS      511.4280047907
 1  1 3.61877298E-01 1.17492344E-01-3.69117865E-01-1.63978051E-01-3.04050805E-02
 1  2 7.96868809E-02 1.43001690E-01 4.51993263E-02 3.75619370E-02-7.42408644E-02
 1  3 7.20979546E-02-9.35972212E-02-2.59224721E-02-1.55776397E-01-3.97613352E-02
 1  4 1.08679424E-01 7.33327502E-02 1.39432264E-01-4.90719076E-02-5.87478306E-03
 1  5-3.15910365E-03-3.03915294E-04 8.81092258E-03-5.70582764E-03 6.76447621E-03
 1  6-3.44652150E-04 7.78012070E-03 4.43090010E-04 1.35885179E-03-3.25265101E-03
 1  7-1.60673207E-01-1.61000361E-01 6.99337621E-02-1.16214167E-01 1.24042246E-02
 1  8 1.91539185E-01-4.96773237E-03 2.69686056E-02 9.87654897E-04-1.49059302E-02
 1  9 3.10385150E-03-9.56277672E-03-5.12700138E-03-4.55038875E-03-1.54935117E-03
 1 10 5.74741138E-03-7.78335889E-04 2.16489253E-03-6.76259044E-04 6.74976909E-04
 1 11 9.68691378E-04-1.48960088E-02-2.25047866E-03-7.32213850E-03 1.61925625E-03
 1 12-3.55762189E-05 8.09437953E-04 2.84483954E-03-4.28491113E-04 2.16459216E-03
 2  1 1.17492344E-01 8.97414752E-01 7.47978923E-02 1.38619114E-01-3.35741650E-01
 2  2-8.46186288E-02-6.33316578E-02-8.03147564E-02-3.87202143E-02 4.58819420E-02
 2  3-4.69902589E-02 5.38711815E-02 5.78752189E-03 7.35033254E-02 1.53003112E-02
 2  4-8.12038464E-02-7.82899073E-02-6.98109866E-02 7.69886306E-03 1.41248850E-03
 2  5 1.49579889E-04-3.57402275E-04-2.62856428E-03 2.26926019E-03-5.56878085E-03
 2  6-1.11109441E-03-6.14696669E-03 4.50924466E-04 2.86222276E-04 1.77862976E-03
 2  7-1.76050753E-01-3.42429158E-01 7.30131883E-02-6.16538816E-03-8.59342904E-02
 2  8-4.10735196E-02-3.79340785E-03 1.66884316E-03 7.11811225E-03 7.63910795E-03
 2  9 8.21223413E-05 4.54911812E-03-2.02667742E-03-4.62478526E-03 3.35836505E-03
 2 10-4.14923464E-03 2.20710336E-03-1.63923627E-03 2.46765529E-04 3.26148010E-04
 2 11-2.73979249E-03 1.95299616E-02 3.95374381E-04 9.93339793E-03 1.10462575E-04
 2 12 3.27512009E-04-6.24476754E-04-8.10048814E-04 4.41746993E-04-7.66032255E-04
 3  1-3.69117865E-01 7.47978923E-02 6.27385022E-01 8.77311729E-02-1.19750473E-01
 3  2-1.35725765E-01 3.11610720E-02 2.72734886E-02 2.09238731E-02-2.22555953E-02
 3  3 2.46172119E-02-2.93982471E-02-1.97571440E-02-6.48284782E-02-2.14367504E-02
 3  4 5.72127446E-02 3.33972725E-02 9.43690439E-03-8.50946331E-03-3.09455310E-03
 3  5 7.54528983E-03 8.58644626E-04 5.52384485E-03-3.06824024E-03 3.09315347E-03
 3  6-2.00270591E-03 6.70283906E-04-1.57481672E-05 1.65348000E-03-1.14067516E-03
 3  7 7.03658368E-02 8.40330932E-02-9.83623374E-02 1.71335756E-01-3.03091247E-02
 3  8-3.73906701E-01 1.28380673E-02-3.23389090E-02 2.41633597E-03-9.05104969E-03
 3  9 4.10888665E-05-3.49580346E-03 4.01459950E-03 5.74475986E-04 3.55766163E-03
 3 10 2.20747560E-03 3.49131726E-04 8.97109694E-04 6.73511984E-04 5.94931143E-04
 3 11 2.34512545E-05-1.37385665E-02-6.24800673E-04-6.81552591E-03 6.07417980E-04
 3 12-1.86374464E-05-4.61119528E-04 3.46070091E-04 1.11930659E-04 9.55384201E-04
 4  1-1.63978051E-01 1.38619114E-01 8.77311729E-02 6.66036420E-01 1.81654387E-02
 4  2-3.27111236E-01-1.79181952E-01-1.59864196E-01 9.00219139E-02-3.56546876E-02
 4  3 1.43949330E-02-2.98401232E-02-2.50037871E-02-6.07438102E-03-7.92601418E-03
 4  4-2.50605572E-02-2.96336126E-03-1.84853292E-02 1.83291717E-03 6.50939583E-04
 4  5 5.11393080E-04-3.49495564E-04-2.24248813E-04 8.60140542E-05 3.25377223E-03
 4  6-3.13357503E-05 8.75713280E-04-1.06214879E-03-4.84592363E-04-1.20829938E-06
 4  7 1.58704449E-02-2.48674522E-02-5.25963610E-03-1.01359989E-02 1.90431288E-02
 4  8-4.88306947E-03-2.51068550E-01 6.36002849E-04 2.19894035E-01-1.39772036E-02
 4  9-1.82649899E-02-7.50009461E-03 1.51557535E-02 2.19100263E-02-4.23379117E-03
 4 10 1.79538091E-03-1.11736632E-03 1.08809223E-03 9.41924380E-04-3.24111479E-04
 4 11 4.16812467E-03 9.99207876E-04 7.57513982E-04 8.26153871E-04-2.22803163E-04
 4 12-3.44724125E-05 2.03537387E-04-1.90263457E-04 7.28161311E-05-1.65789223E-04
 5  1-3.04050805E-02-3.35741650E-01-1.19750473E-01 1.81654387E-02 7.82656563E-01
 5  2 2.48832768E-02 9.72966348E-04-3.33720487E-01 1.04106122E-01-1.18707929E-01
 5  3 7.73080127E-02-1.20649501E-01-2.61740462E-03-1.49357655E-01-9.34975986E-03
 5  4 1.35772191E-01 5.92639905E-02 1.27276217E-01-1.58624975E-02-4.76603135E-04
 5  5-8.34825684E-04-1.25215547E-03 4.23794915E-03-3.83094038E-03 1.25756108E-02
 5  6 2.73662419E-03 5.72345145E-03-4.42545462E-04-4.12152947E-04-2.58258539E-03
 5  7 2.95419250E-02-1.91990183E-02-1.55080070E-03 2.41919939E-02 4.90073179E-03
 5  8 1.75275948E-02 2.45990577E-03-8.05045558E-02-3.17740620E-03-2.10358505E-02
 5  9 7.88851776E-03-1.66270484E-02-3.32574183E-02-1.76303045E-02-2.24320810E-03
 5 10 7.64523539E-03-1.13643332E-03 3.59553805E-03 3.81652608E-04 3.07782808E-04
 5 11-3.21145524E-05-9.99014867E-03-3.09906814E-04-4.68945984E-03 3.34372197E-04
 5 12-3.22125615E-04 9.05113944E-04 1.52900022E-03-4.90547180E-04 1.30206190E-03
 6  1 7.96868809E-02-8.46186288E-02-1.35725765E-01-3.27111236E-01 2.48832768E-02
 6  2 5.23183513E-01 8.83925705E-02 6.21410310E-02-1.21602774E-01-1.73497269E-02
 6  3 1.29572316E-03-1.07739672E-02-3.67209419E-02-3.77352068E-03-8.47794740E-03
 6  4-7.58172198E-03 5.50289597E-03-2.28453051E-03 1.21222708E-03 2.78470840E-04
 6  5-1.47729355E-03-2.81342801E-04-3.90357146E-04 8.86120301E-04 1.52445888E-03
 6  6 6.12277865E-04-1.52516228E-03-5.16778085E-04-7.16530686E-04 8.13713817E-04
 6  7-6.56847637E-03 9.14848237E-03 4.99452356E-03 1.85164424E-02-3.54979786E-02
 6  8 2.89052675E-03 1.97058177E-01-3.16142556E-03-2.60961887E-01 1.97546730E-02
 6  9 3.34501897E-02 3.87976576E-03-8.97690647E-03-9.05380719E-03 3.80474507E-03
 6 10-7.92425842E-04 1.98379991E-04-5.99343581E-05 1.76315315E-03-2.01923427E-04
 6 11 2.67083852E-03-1.66599843E-03-1.90133063E-04-4.07060391E-04-2.15120055E-04
 6 12 7.27926824E-05 3.18908853E-04-1.28200979E-04 2.05820537E-05-1.46329471E-04
 7  1 1.43001690E-01-6.33316578E-02 3.11610720E-02-1.79181952E-01 9.72966348E-04
 7  2 8.83925705E-02 3.75916432E-01-4.51205128E-02-3.87549782E-01 9.35524712E-02
 7  3-9.34256198E-02 1.35370803E-01-1.45442130E-02 1.62710984E-01-1.93816118E-02
 7  4-8.69282133E-02-5.90625149E-02-1.01181678E-01 1.10217466E-02-6.96404810E-04
 7  5 3.61774261E-03 3.92608071E-03-2.34244738E-03 3.91392096E-03-4.58883296E-02
 7  6-1.01148881E-02-9.84380100E-03 3.46959831E-03 5.94072980E-03 1.57366351E-03
 7  7-3.69576425E-03 4.72571048E-03-1.73980378E-04-1.65858943E-02-6.90350244E-04
 7  8-9.75720674E-03-9.05717808E-03-2.62609310E-02-3.21832707E-03-1.34011476E-01
 7  9-1.86771646E-02 2.00878710E-01-1.33864086E-01 1.41897580E-01 6.99572518E-02
 7 10-1.06984953E-02 3.43208595E-03-5.05246841E-03-2.04531803E-03-6.74172914E-04
 7 11 6.12109563E-04 7.73741055E-03 3.44043592E-04 3.17575630E-03-7.26183137E-04
 7 12 3.34695750E-04-1.05406100E-03-1.39806465E-03 3.84127658E-05-1.44128103E-03
 8  1 4.51993263E-02-8.03147564E-02 2.72734886E-02-1.59864196E-01-3.33720487E-01
 8  2 6.21410310E-02-4.51205128E-02 9.22233132E-01-2.85345890E-02 5.99370917E-02
 8  3-7.84486366E-02 5.44905182E-02 2.36574111E-03 5.86201044E-02-2.00087931E-03
 8  4-4.45202159E-02-3.49317317E-02-4.74122366E-02 5.52762717E-03 6.99438934E-04
 8  5 3.91501092E-03 3.41722031E-04-1.50077631E-03 1.52201460E-03-5.18000708E-03
 8  6-9.48689585E-04-4.58668551E-03-1.61578235E-03 1.23098329E-04 2.12357382E-03
 8  7 1.79007298E-03-5.13070808E-03-3.40159017E-03-6.37767868E-03 1.09103561E-03
 8  8-3.62874568E-03 2.71483185E-03 2.53402075E-03-8.03660297E-03 8.33324827E-05
 8  9-8.83355621E-02 3.56427132E-02 1.56666337E-01-3.66295561E-01-8.55379310E-02
 8 10-1.47043472E-02 1.97758941E-03-7.95707578E-03-6.36732529E-04-1.35544958E-04
 8 11 2.53431061E-03 4.66582499E-03 1.83429049E-03 2.19161677E-03-3.65919393E-04
 8 12 1.38396684E-04-3.03492807E-04-9.06061492E-04 5.11167938E-04-4.34575073E-04
 9  1 3.75619370E-02-3.87202143E-02 2.09238731E-02 9.00219139E-02 1.04106122E-01
 9  2-1.21602774E-01-3.87549782E-01-2.85345890E-02 5.93351864E-01 6.21726420E-02
 9  3-5.06535717E-02 1.67081533E-02-1.44681647E-02 7.95911324E-02-1.39454512E-02
 9  4-3.01139506E-02-2.62941750E-02-3.97500575E-02 1.21210495E-03-2.18351973E-03
 9  5 3.02463559E-03-5.16249348E-04 5.86735243E-04 3.09794726E-04-9.52879651E-03
 9  6-1.97987009E-03 5.38680955E-03 2.27451320E-03 2.95123507E-03-1.80484902E-03
 9  7 4.17250794E-03-1.20344842E-03 3.13042752E-03-1.04876759E-02 1.11821045E-03
 9  8-3.87475962E-03 1.56503777E-02 3.09907681E-02 3.33873628E-03 1.81731049E-01
 9  9 2.65687677E-02-3.57587811E-01 6.91432736E-02-9.79601075E-02-1.00067380E-01
 9 10-1.46830747E-02 2.69952320E-03-7.95025160E-03 6.85200102E-05-6.02644700E-04
 9 11-1.31130462E-04 3.57376063E-03-3.41446911E-04 1.10001343E-03-2.78053045E-04
 9 12 9.82182424E-05-4.36442333E-04 4.31767156E-05-2.36421227E-04-1.23993926E-04
10  1-7.42408644E-02 4.58819420E-02-2.22555953E-02-3.56546876E-02-1.18707929E-01
10  2-1.73497269E-02 9.35524712E-02 5.99370917E-02 6.21726420E-02 2.90160350E-01
10  3 9.11691631E-02-2.78236858E-01-8.20801729E-02-1.12192856E-01 5.78221853E-02
10  4 4.49282088E-02 4.12620771E-02 5.43550230E-02-6.25379889E-03 1.27009716E-03
10  5-1.11602300E-02-2.84182275E-04-3.24327464E-03 1.07144733E-02-1.55901324E-01
10  6 1.70947097E-02 8.60977221E-02-1.43740709E-02-2.97335540E-02 2.76576536E-02
10  7 1.75583167E-03 7.31283492E-04 2.15953073E-03 7.05350861E-03 8.49000341E-04
10  8 4.38736799E-03 3.06596331E-04 9.49015698E-04 4.05935687E-04-1.23390386E-02
10  9 1.53573829E-03-8.05301318E-03-1.27230922E-02-1.19355442E-03-1.43468693E-02
10 10-5.75505882E-02 2.66527918E-02 3.45549981E-02 8.44691578E-03-2.11052706E-02
10 11 8.08502091E-03 2.09966500E-03-6.74060963E-04 8.64151637E-04 1.97298267E-04
10 12-5.92094215E-04-5.69003532E-05 2.90149484E-03 1.10183185E-04 2.18299376E-03
11  1 7.20979546E-02-4.69902589E-02 2.46172119E-02 1.43949330E-02 7.73080127E-02
11  2 1.29572316E-03-9.34256198E-02-7.84486366E-02-5.06535717E-02 9.11691631E-02
11  3 9.40108931E-01 1.10328582E-01-3.82034181E-02-3.43119343E-01 1.51832807E-01
11  4-5.14873227E-02-8.10899063E-02-4.98368517E-02 3.02827425E-03 9.54854601E-04
11  5 5.43585059E-03 2.47979842E-02 5.88273689E-03-2.28374918E-02-1.00045316E-02
11  6-1.23468400E-01-2.55954295E-02-4.55075742E-02-9.14336587E-03 4.19936007E-02
11  7-2.36952891E-03 1.87012353E-03-2.92484866E-03-9.85533243E-03 3.42650439E-04
11  8-4.33225647E-03-2.30929405E-03 2.51891420E-04 8.73635257E-04 9.31282690E-03
11  9-1.14588670E-03 6.35913141E-03 1.36523948E-02 5.74197863E-05 1.43082684E-02
11 10 1.24429579E-02-3.36149831E-01-1.91833853E-01 6.34879376E-03 2.46949255E-03
11 11-5.65147389E-03 5.03935633E-03-3.77773937E-03-2.51404783E-03-7.81956210E-04
11 12 5.35777271E-04 8.45068646E-05 1.65951566E-03-6.44769236E-03-9.50874359E-04
12  1-9.35972212E-02 5.38711815E-02-2.93982471E-02-2.98401232E-02-1.20649501E-01
12  2-1.07739672E-02 1.35370803E-01 5.44905182E-02 1.67081533E-02-2.78236858E-01
12  3 1.10328582E-01 5.40399235E-01 5.44621891E-02 1.79461725E-02-2.06879438E-01
12  4 5.45882319E-02 2.63454675E-02 1.02316780E-01-3.74695300E-03 6.52455182E-03
12  5-1.13922400E-02 2.09344350E-02-4.15351354E-03-6.61190023E-03 1.11391386E-01
12  6-1.43510143E-02-1.64066255E-01 2.32009715E-02 1.69896043E-02-4.55844123E-03
12  7 2.58201787E-03-2.67562395E-04 2.92777078E-03 1.03848373E-02 3.42081172E-04
12  8 5.84366726E-03 6.45808240E-04 4.16000034E-04-6.60295536E-04-3.00379364E-02
12  9 4.67324636E-03-1.99939672E-02-3.44499528E-03-1.44194635E-03-4.66758706E-03
12 10 3.36075158E-02-1.78770692E-01-1.97141222E-01-2.99345034E-03 3.44929812E-02
12 11-6.19583304E-03-4.62142660E-03-4.83982219E-03-6.30606460E-03-1.10094489E-03
12 12 3.84366068E-04 1.05165695E-04 4.52804212E-04-2.33118846E-03 3.46046411E-04
13  1-2.59224721E-02 5.78752189E-03-1.97571440E-02-2.50037871E-02-2.61740462E-03
13  2-3.67209419E-02-1.45442130E-02 2.36574111E-03-1.44681647E-02-8.20801729E-02
13  3-3.82034181E-02 5.44621891E-02 3.60917182E-01 2.59142081E-02-2.47866715E-01
13  4-7.13596161E-02 2.05821415E-02 5.44542361E-02-6.44927343E-03 2.26239041E-02
13  5 2.74251597E-02 1.02824830E-03 4.29108065E-03-3.06445436E-04-3.10882294E-04
13  6-2.87419560E-02 1.62945893E-02-4.81325424E-03 9.63898621E-04 3.42753111E-03
13  7 5.01244006E-04-3.73937221E-04 1.38711709E-06 4.34839843E-04-4.30584937E-04
13  8 2.96151923E-04 4.76209889E-03-2.37447935E-04 8.04976226E-04-8.58086682E-05
13  9 5.97901624E-04-3.42438096E-04 1.68906026E-05 2.11023230E-04-5.44280362E-04
13 10 2.49600033E-03 8.39277067E-04-2.35328128E-03-1.38323913E-01-1.20631778E-02
13 11 1.64125307E-01 9.75633520E-04-1.28355969E-04-2.67820535E-03-2.79138744E-03
13 12-1.29260036E-03 4.05189583E-03 5.52103928E-04-8.85045904E-05-3.05608675E-04
14  1-1.55776397E-01 7.35033254E-02-6.48284782E-02-6.07438102E-03-1.49357655E-01
14  2-3.77352068E-03 1.62710984E-01 5.86201044E-02 7.95911324E-02-1.12192856E-01
14  3-3.43119343E-01 1.79461725E-02 2.59142081E-02 7.74087541E-01-2.78188972E-03
14  4 1.03125673E-01-3.10134763E-01-4.30802343E-02-4.13961408E-03 1.34351281E-02
14  5-2.51953422E-02-1.21596963E-03-4.92493759E-03 1.40605706E-04 4.71881912E-04
14  6 1.90967241E-03 3.43111620E-02 5.33142760E-03 4.75246532E-03-8.08771339E-03
14  7 4.56415571E-03-5.19640245E-04 4.94943920E-03 1.55423730E-02 7.31254819E-04
14  8 9.94735349E-03 8.31305694E-05 3.11118899E-04 5.37561795E-04-1.41672586E-02
14  9 2.67536627E-03-9.63959475E-03-5.68606050E-03-8.14723946E-06-6.53800475E-03
14 10 1.01322960E-02-1.98828768E-02 2.85416609E-02-1.27788974E-02-8.16632419E-02
14 11 1.95966886E-02-1.41318895E-02-1.83580156E-02-3.43948402E-02-2.68417881E-03
14 12-5.90927624E-04 2.95253848E-03 9.71654348E-04-1.46728782E-03-1.93672637E-04
15  1-3.97613352E-02 1.53003112E-02-2.14367504E-02-7.92601418E-03-9.34975986E-03
15  2-8.47794740E-03-1.93816118E-02-2.00087931E-03-1.39454512E-02 5.78221853E-02
15  3 1.51832807E-01-2.06879438E-01-2.47866715E-01-2.78188972E-03 8.67300998E-01
15  4 6.48711464E-02-1.67928217E-01-2.37251091E-01 4.34447610E-04-2.55736751E-02
15  5-2.82519310E-02-2.21041878E-03-2.44938966E-03 3.44660960E-03-4.59221423E-03
15  6 2.95300844E-02-1.53562828E-02 5.10352986E-03-6.92162757E-04-2.17368538E-03
15  7 1.56273666E-03-1.04376153E-03 1.71400244E-03 4.08250930E-03-4.55926881E-04
15  8 1.78188757E-03 2.69970008E-03-1.27240424E-04-7.40439890E-04 1.66053935E-03
15  9 3.84730285E-04 5.91371184E-04 9.71873194E-04 7.80552741E-04 1.03714260E-03
15 10-1.93325364E-03-2.67830101E-02 1.81665653E-02 1.85066390E-01 1.92465593E-02
15 11-3.75460703E-01-2.93487980E-03 2.12981021E-02 1.70967982E-02 2.95832518E-03
15 12 8.30838190E-04-2.07378356E-03-6.27071871E-04-1.82073448E-05 9.12868156E-04
16  1 1.08679424E-01-8.12038464E-02 5.72127446E-02-2.50605572E-02 1.35772191E-01
16  2-7.58172198E-03-8.69282133E-02-4.45202159E-02-3.01139506E-02 4.49282088E-02
16  3-5.14873227E-02 5.45882319E-02-7.13596161E-02 1.03125673E-01 6.48711464E-02
16  4 2.69643438E-01-3.49510037E-02-2.92192762E-01-1.62916774E-01 1.16906427E-02
16  5 1.05933195E-01-1.06306610E-02-2.43946486E-02 2.23295481E-02-9.59080568E-03
16  6 6.55400116E-03-1.83992136E-02-6.90385035E-04-2.99198156E-03 5.47795904E-03
16  7-1.26536382E-02 3.55356626E-03-1.30657123E-02-1.61603972E-02-4.15718485E-04
16  8-1.06849953E-02-8.67692550E-04-8.75790480E-04-9.66029900E-04 8.05193057E-03
16  9-2.40865464E-03 4.99907747E-03 2.15264089E-03-8.10586342E-04 3.33216103E-03
16 10 2.72491162E-03 4.41035010E-04 2.04804724E-03 7.05776203E-03 1.93043426E-02
16 11 1.11458543E-02-5.08658418E-02-3.00536828E-02 3.04624545E-02-9.52709908E-04
16 12-6.10034455E-03 5.12127238E-03 5.43938492E-03-2.25487834E-04 5.48181101E-03
17  1 7.33327502E-02-7.82899073E-02 3.33972725E-02-2.96336126E-03 5.92639905E-02
17  2 5.50289597E-03-5.90625149E-02-3.49317317E-02-2.62941750E-02 4.12620771E-02
17  3-8.10899063E-02 2.63454675E-02 2.05821415E-02-3.10134763E-01-1.67928217E-01
17  4-3.49510037E-02 9.56246797E-01-5.03226639E-02 1.77073631E-03-1.39139706E-01
17  5 1.96296768E-02-2.87396281E-02 9.37407276E-03 2.67465182E-02-5.70239753E-04
17  6 2.95502782E-04-4.61818445E-03-1.36671134E-04 6.41195124E-04 1.43157362E-03
17  7-1.15011900E-02 1.39027685E-03-1.12697489E-02-8.17476299E-03 4.38129202E-04
17  8-5.86123640E-03 2.00342962E-03-3.34409489E-05-1.31342305E-03 7.75358512E-03
17  9-5.16358835E-04 3.42486949E-03 2.79938510E-03 1.69442140E-03 3.67487458E-03
17 10-4.64366434E-03-4.73757459E-03 2.90721302E-03-6.04708605E-03 6.50933952E-03
17 11 8.26199571E-03-1.23572709E-02-3.90152504E-01 1.61554006E-01 2.41222453E-02
17 12 8.22973142E-03-2.35189563E-02-4.47875410E-03-5.05770461E-03-1.74916036E-03
18  1 1.39432264E-01-6.98109866E-02 9.43690439E-03-1.84853292E-02 1.27276217E-01
18  2-2.28453051E-03-1.01181678E-01-4.74122366E-02-3.97500575E-02 5.43550230E-02
18  3-4.98368517E-02 1.02316780E-01 5.44542361E-02-4.30802343E-02-2.37251091E-01
18  4-2.92192762E-01-5.03226639E-02 5.64720525E-01 1.44553053E-01-2.76125994E-03
18  5-1.99202943E-01 1.51132671E-02 7.59506342E-03-1.12625522E-02-1.21920398E-02
18  6-7.77961925E-05-1.29589350E-02 8.09804373E-04-2.02287683E-03 2.48553591E-03
18  7-1.94220765E-03 1.66131823E-03-3.04044162E-03-3.33827247E-02-5.72421980E-04
18  8-2.09918131E-02 2.64243241E-04-3.74401196E-04-1.82367453E-03 9.67164079E-03
18  9-1.67027581E-03 5.76118468E-03 3.47434972E-03 7.44781152E-05 4.00592703E-03
18 10-2.80978937E-03 5.30650825E-03-4.80663433E-03-6.32478337E-03-3.11245260E-02
18 11-1.06702096E-02 3.07170695E-02 1.50212270E-01-1.44588586E-01 9.72953401E-03
18 12 7.50185985E-03-6.17114824E-03 5.93668331E-03-5.61187881E-04 6.07534225E-03
19  1-4.90719076E-02 7.69886306E-03-8.50946331E-03 1.83291717E-03-1.58624975E-02
19  2 1.21222708E-03 1.10217466E-02 5.52762717E-03 1.21210495E-03-6.25379889E-03
19  3 3.02827425E-03-3.74695300E-03-6.44927343E-03-4.13961408E-03 4.34447610E-04
19  4-1.62916774E-01 1.77073631E-03 1.44553053E-01 5.18280982E-01 1.47658175E-01
19  5-3.06467249E-01-2.22638446E-01-2.05059391E-01 1.20026202E-01 2.02414064E-02
19  6-1.15974440E-02-1.46940291E-02-7.37266531E-04 1.20902198E-02 2.11113424E-03
19  7-2.66698613E-04-4.98367836E-04 2.24543052E-04-3.79793141E-03-1.71209309E-04
19  8 2.72421726E-03 5.35817016E-04-1.14875125E-04 7.73475755E-04-1.24572752E-03
19  9 7.22831697E-04-4.46274323E-04 1.13219052E-05-1.58027471E-05 1.57043265E-04
19 10-8.00831082E-04-5.72777049E-04 5.76762985E-04 4.63900739E-03-3.08186515E-03
19 11 7.10322506E-04-3.70237921E-03 2.98897560E-03-2.94250310E-03-9.75786217E-02
19 12 8.86149300E-02 5.42257761E-02-1.10375155E-03-2.89866842E-02 7.86593738E-03
20  1-5.87478306E-03 1.41248850E-03-3.09455310E-03 6.50939583E-04-4.76603135E-04
20  2 2.78470840E-04-6.96404810E-04 6.99438934E-04-2.18351973E-03 1.27009716E-03
20  3 9.54854601E-04 6.52455182E-03 2.26239041E-02 1.34351281E-02-2.55736751E-02
20  4 1.16906427E-02-1.39139706E-01-2.76125994E-03 1.47658175E-01 1.15793269E+00
20  5-9.05767727E-03-2.31927965E-01-6.16937697E-01 1.60526440E-01-1.69651930E-02
20  6-5.34926680E-02 8.09449850E-03 6.31041426E-03 4.50302870E-03-5.99016032E-03
20  7 1.55316793E-04-3.94920680E-05 9.25995625E-05-1.16569213E-03 1.73450050E-03
20  8 4.82547654E-04-3.98437991E-05 4.14385439E-05 4.03272104E-04-3.02531656E-04
20  9-4.74720576E-05 1.54561413E-04 1.38316870E-04 3.15491499E-05 1.93034855E-04
20 10-1.52248066E-03 6.21153954E-04 3.91532039E-05-2.65050911E-03-4.99230593E-03
20 11-4.23348321E-03-2.78517170E-02 6.31892103E-03 2.63382058E-02 9.19385201E-02
20 12-3.76390899E-01-1.45574799E-01 6.56042612E-03 3.83073965E-03-4.65817032E-03
21  1-3.15910365E-03 1.49579889E-04 7.54528983E-03 5.11393080E-04-8.34825684E-04
21  2-1.47729355E-03 3.61774261E-03 3.91501092E-03 3.02463559E-03-1.11602300E-02
21  3 5.43585059E-03-1.13922400E-02 2.74251597E-02-2.51953422E-02-2.82519310E-02
21  4 1.05933195E-01 1.96296768E-02-1.99202943E-01-3.06467249E-01-9.05767727E-03
21  5 5.24219549E-01 1.20809771E-01 1.37345054E-01-1.72975524E-01-1.42716604E-02
21  6-1.25450151E-03 2.41725181E-02 2.49468373E-03-9.97761529E-03-2.73677197E-03
21  7-9.77246438E-04 4.23663672E-04-1.05163877E-03-4.52947192E-03-7.10839785E-05
21  8 6.04477702E-04-9.87243548E-05 5.47750530E-05 4.10165308E-04-1.51011890E-03
21  9 5.96453543E-05-3.11081885E-04-7.89080611E-04-3.92951800E-04-1.34765057E-03
21 10 7.97418938E-04 6.17343961E-04-5.93199125E-04 4.69037019E-03-2.88002831E-03
21 11 5.02433837E-04 1.34446211E-02-5.68636496E-03-7.88252802E-03 5.40765966E-02
21 12-1.40408245E-01-1.32858339E-01 9.16236469E-03 2.81278452E-02-3.98595598E-04
22  1-3.03915294E-04-3.57402275E-04 8.58644626E-04-3.49495564E-04-1.25215547E-03
22  2-2.81342801E-04 3.92608071E-03 3.41722031E-04-5.16249348E-04-2.84182275E-04
22  3 2.47979842E-02 2.09344350E-02 1.02824830E-03-1.21596963E-03-2.21041878E-03
22  4-1.06306610E-02-2.87396281E-02 1.51132671E-02-2.22638446E-01-2.31927965E-01
22  5 1.20809771E-01 5.99672059E-01 2.08561998E-01-4.20863808E-01-1.36862352E-01
22  6 5.25169442E-02 5.07525249E-02 2.30887682E-02-2.59727652E-02-4.07030186E-03
22  7-3.37850705E-04 1.96804037E-04 4.66620599E-05-4.67392258E-04 9.68587224E-05
22  8 7.73726732E-04 4.11005501E-05 1.17026130E-04-2.99908506E-05-8.88784571E-04
22  9 1.48346453E-04-3.39345346E-04 3.59158972E-04-4.63974762E-05 3.19788338E-04
22 10-2.95409857E-03-2.00395384E-03 3.71911947E-03-5.08743954E-04-1.93124920E-04
22 11-8.14902280E-04-1.98407987E-03 1.45795256E-03 3.50140907E-03 1.45505753E-02
22 12 1.27617324E-02 8.33296411E-04-2.64457182E-01-9.28826738E-03 2.11462845E-01
23  1 8.81092258E-03-2.62856428E-03 5.52384485E-03-2.24248813E-04 4.23794915E-03
23  2-3.90357146E-04-2.34244738E-03-1.50077631E-03 5.86735243E-04-3.24327464E-03
23  3 5.88273689E-03-4.15351354E-03 4.29108065E-03-4.92493759E-03-2.44938966E-03
23  4-2.43946486E-02 9.37407276E-03 7.59506342E-03-2.05059391E-01-6.16937697E-01
23  5 1.37345054E-01 2.08561998E-01 9.84585756E-01-9.50857253E-02 4.84372775E-02
23  6-2.05008593E-01-6.33647794E-02-3.46304280E-03-7.94399275E-02-1.10996011E-02
23  7-6.45889350E-04 3.75431612E-04-3.94776130E-04 4.47118444E-04-1.96207042E-04
23  8 3.66767463E-04-1.01580519E-04 2.28258277E-04-1.41703063E-04 4.06470840E-04
23  9-3.83572407E-04-5.17103428E-04-2.27231161E-05 2.77443246E-05-3.95435201E-04
23 10-8.54751766E-04-1.00065279E-04 1.73808195E-03 8.90924412E-04 3.47515922E-04
23 11 5.29327349E-04 3.04106521E-03 3.21701559E-04-9.57611993E-04-2.04780415E-02
23 12-1.71428889E-02 1.83518795E-02-1.40564997E-02-7.71180439E-02 6.91314240E-03
24  1-5.70582764E-03 2.26926019E-03-3.06824024E-03 8.60140542E-05-3.83094038E-03
24  2 8.86120301E-04 3.91392096E-03 1.52201460E-03 3.09794726E-04 1.07144733E-02
24  3-2.28374918E-02-6.61190023E-03-3.06445436E-04 1.40605706E-04 3.44660960E-03
24  4 2.23295481E-02 2.67465182E-02-1.12625522E-02 1.20026202E-01 1.60526440E-01
24  5-1.72975524E-01-4.20863808E-01-9.50857253E-02 5.65068217E-01 5.52687997E-02
24  6-6.38121085E-02-1.56363204E-01-2.40393652E-03 8.15451034E-03 2.70482840E-02
24  7 7.96128977E-05-1.68849925E-04 4.83344700E-04 1.02435679E-04-1.73828391E-05
24  8 6.71916434E-04 4.06922589E-06 3.92018036E-05 7.80574106E-05 1.62382537E-04
24  9-1.39599299E-05-1.80953539E-05-7.92604815E-05 8.08301691E-05 3.53977353E-04
24 10 4.05216483E-03 1.01791970E-03-1.29531633E-03-2.04633190E-05-2.87037729E-04
24 11 1.15135578E-03 3.23102230E-03-7.53852132E-04-3.25948475E-03-3.28244181E-03
24 12-1.80016030E-02 1.51518809E-02 2.12690753E-01 4.31180797E-03-2.59795526E-01
25  1 6.76447621E-03-5.56878085E-03 3.09315347E-03 3.25377223E-03 1.25756108E-02
25  2 1.52445888E-03-4.58883296E-02-5.18000708E-03-9.52879651E-03-1.55901324E-01
25  3-1.00045316E-02 1.11391386E-01-3.10882294E-04 4.71881912E-04-4.59221423E-03
25  4-9.59080568E-03-5.70239753E-04-1.21920398E-02 2.02414064E-02-1.69651930E-02
25  5-1.42716604E-02-1.36862352E-01 4.84372775E-02 5.52687997E-02 5.42445846E-01
25  6 2.59930832E-01-2.59556396E-01-2.26876165E-01-3.08946918E-01 1.10790816E-01
25  7-4.94008862E-04 1.64037374E-04-1.52661296E-05-1.41408502E-04-2.78955340E-05
25  8 9.29070304E-05-3.45566617E-05 1.59217403E-04 5.18573816E-04-3.32554283E-03
25  9-7.59797659E-04 1.80862738E-03 2.46305200E-04 4.03126597E-04 1.25107780E-04
25 10-1.03275861E-03-1.77318308E-03-3.27887705E-03 4.31476074E-03 4.55474086E-03
25 11 4.36044489E-04-4.17389906E-04 6.39593031E-04 8.37921592E-04 5.38992206E-03
25 12-2.77964518E-03 1.10363226E-02-1.78039264E-03 2.52398396E-02 6.51246258E-03
26  1-3.44652150E-04-1.11109441E-03-2.00270591E-03-3.13357503E-05 2.73662419E-03
26  2 6.12277865E-04-1.01148881E-02-9.48689585E-04-1.97987009E-03 1.70947097E-02
26  3-1.23468400E-01-1.43510143E-02-2.87419560E-02 1.90967241E-03 2.95300844E-02
26  4 6.55400116E-03 2.95502782E-04-7.77961925E-05-1.15974440E-02-5.34926680E-02
26  5-1.25450151E-03 5.25169442E-02-2.05008593E-01-6.38121085E-02 2.59930832E-01
26  6 1.14644440E+00-1.21978319E-01-3.06248405E-01-7.76669156E-01 1.93380232E-01
26  7 4.98703898E-04-1.87195534E-04 5.94349051E-06-5.57004528E-04-1.54518761E-04
26  8-8.14311959E-04-4.21271721E-05-4.71661157E-04-1.92498956E-04 1.97655232E-03
26  9 2.11409330E-03 2.03442834E-03 1.46922821E-05 1.49311892E-04 5.42278331E-04
26 10 2.35176014E-02 9.08330602E-03-2.35846547E-02-5.86376385E-04-6.31409907E-03
26 11 7.60851488E-04 1.67658951E-03 2.93982918E-04-1.06390602E-03-1.32558595E-03
26 12-1.56284076E-03-1.23163448E-03-4.19118929E-03 6.36243032E-03 5.47677755E-03
27  1 7.78012070E-03-6.14696669E-03 6.70283906E-04 8.75713280E-04 5.72345145E-03
27  2-1.52516228E-03-9.84380100E-03-4.58668551E-03 5.38680955E-03 8.60977221E-02
27  3-2.55954295E-02-1.64066255E-01 1.62945893E-02 3.43111620E-02-1.53562828E-02
27  4-1.83992136E-02-4.61818445E-03-1.29589350E-02-1.46940291E-02 8.09449850E-03
27  5 2.41725181E-02 5.07525249E-02-6.33647794E-02-1.56363204E-01-2.59556396E-01
27  6-1.21978319E-01 4.75210801E-01 1.09008095E-01 1.95655593E-01-1.46188047E-01
27  7-2.43610810E-04 4.21712444E-04-1.18963203E-03-2.96317067E-03-1.37821182E-04
27  8-1.20512484E-03 3.97222987E-04-5.94384369E-05 4.44405879E-04-5.43283689E-03
27  9-3.22294651E-04 2.37495367E-05-3.47380778E-04-8.97684034E-05-1.04382342E-03
27 10 1.55697311E-02 6.84026430E-03-1.02444102E-02 6.22037391E-03-2.58371792E-04
27 11 2.20093660E-03 1.76093571E-03-6.10925908E-04-1.33750002E-03 1.24376302E-02
27 12 3.22648096E-04 5.39880826E-03 4.28513207E-03-2.35995193E-02-2.03004611E-03
28  1 4.43090010E-04 4.50924466E-04-1.57481672E-05-1.06214879E-03-4.42545462E-04
28  2-5.16778085E-04 3.46959831E-03-1.61578235E-03 2.27451320E-03-1.43740709E-02
28  3-4.55075742E-02 2.32009715E-02-4.81325424E-03 5.33142760E-03 5.10352986E-03
28  4-6.90385035E-04-1.36671134E-04 8.09804373E-04-7.37266531E-04 6.31041426E-03
28  5 2.49468373E-03 2.30887682E-02-3.46304280E-03-2.40393652E-03-2.26876165E-01
28  6-3.06248405E-01 1.09008095E-01 2.19514708E-01 3.48932757E-01-1.34772633E-01
28  7 1.09806214E-04-3.81395680E-05-1.05834304E-04-3.44638155E-04-1.00522606E-04
28  8-2.21500921E-04 2.35223030E-04-9.15566680E-05-1.21319521E-04-2.30435453E-04
28  9 3.32515039E-04 6.44961950E-05 1.56588117E-04 2.12673408E-05-1.84324813E-05
28 10 1.88241157E-03 4.06653247E-04-2.66245672E-03 3.45113682E-04-2.50394054E-03
28 11 7.48941987E-04 5.78611243E-04-1.08875740E-04-2.69654094E-04-5.09798448E-04
28 12 1.27973884E-04-1.68694130E-03-1.85752963E-04-1.65785736E-03-9.11386158E-04
29  1 1.35885179E-03 2.86222276E-04 1.65348000E-03-4.84592363E-04-4.12152947E-04
29  2-7.16530686E-04 5.94072980E-03 1.23098329E-04 2.95123507E-03-2.97335540E-02
29  3-9.14336587E-03 1.69896043E-02 9.63898621E-04 4.75246532E-03-6.92162757E-04
29  4-2.99198156E-03 6.41195124E-04-2.02287683E-03 1.20902198E-02 4.50302870E-03
29  5-9.97761529E-03-2.59727652E-02-7.94399275E-02 8.15451034E-03-3.08946918E-01
29  6-7.76669156E-01 1.95655593E-01 3.48932757E-01 8.53158447E-01-2.16391635E-01
29  7-2.06354972E-04 1.04173690E-04-1.44829802E-04 7.99640015E-05-2.97233152E-05
29  8 1.38896862E-04 1.62870467E-04 1.94684818E-04-3.38915985E-05-5.85653308E-04
29  9-3.43926102E-04-6.71092104E-04-3.30098641E-04-1.55594586E-04-3.81182612E-04
29 10 1.12176111E-03-2.33449711E-04 7.63499638E-04 8.37769664E-04-1.37485588E-04
29 11 7.48007728E-04-1.44728484E-04 9.81159652E-05 3.99951712E-04-1.11370946E-03